; benchmark generated from python API
(set-info :status unknown)
(declare-fun strlen_72_64 () (_ BitVec 64))
(declare-fun args_0_8 () (_ BitVec 8))
(declare-fun strlen_75_64 () (_ BitVec 64))
(declare-fun args_1_8 () (_ BitVec 8))
(declare-fun sigaction_oldact_171_1216 () (_ BitVec 1216))
(declare-fun sigaction_oldact_175_1216 () (_ BitVec 1216))
(declare-fun sigaction_oldact_184_1216 () (_ BitVec 1216))
(declare-fun sigaction_oldact_196_1216 () (_ BitVec 1216))
(declare-fun sigaction_oldact_218_1216 () (_ BitVec 1216))
(declare-fun sigaction_oldact_259_1216 () (_ BitVec 1216))
(declare-fun sigaction_oldact_354_1216 () (_ BitVec 1216))
(declare-fun sigaction_oldact_550_1216 () (_ BitVec 1216))
(declare-fun sigaction_oldact_890_1216 () (_ BitVec 1216))
(declare-fun sigaction_oldact_1672_1216 () (_ BitVec 1216))
(assert
 (let (($x351 (= (_ bv1 64) strlen_72_64)))
 (not $x351)))
(assert
 (let ((?x82 (bvadd (_ bv576460752303357824 64) strlen_72_64)))
 (let (($x69 (= (_ bv0 8) args_0_8)))
 (let ((?x46 (ite $x69 (_ bv576460752303357824 64) (_ bv576460752303357825 64))))
 (= ?x46 ?x82)))))
(assert
 (let (($x347 (= (_ bv0 8) args_1_8)))
 (let ((?x355 (ite $x347 (_ bv576460752303357826 64) (_ bv576460752303357827 64))))
 (let ((?x356 (bvsub ?x355 (_ bv576460752303357826 64))))
 (= ?x356 strlen_75_64)))))
(assert
 (let ((?x1831 ((_ extract 127 120) sigaction_oldact_171_1216)))
 (let ((?x2319 (bvand ?x1831 (_ bv4 8))))
 (= (_ bv0 8) ?x2319))))
(assert
 (let ((?x2264 ((_ extract 127 120) sigaction_oldact_175_1216)))
 (let ((?x2349 (bvand ?x2264 (_ bv4 8))))
 (= (_ bv0 8) ?x2349))))
(assert
 (let ((?x2642 ((_ extract 127 120) sigaction_oldact_184_1216)))
 (let ((?x2659 (bvand ?x2642 (_ bv4 8))))
 (= (_ bv0 8) ?x2659))))
(assert
 (let ((?x3333 ((_ extract 127 120) sigaction_oldact_196_1216)))
 (let ((?x3353 (bvand ?x3333 (_ bv4 8))))
 (= (_ bv0 8) ?x3353))))
(assert
 (let ((?x4754 ((_ extract 127 120) sigaction_oldact_218_1216)))
 (let ((?x4764 (bvand ?x4754 (_ bv4 8))))
 (= (_ bv0 8) ?x4764))))
(assert
 (let ((?x7514 ((_ extract 127 120) sigaction_oldact_259_1216)))
 (let ((?x7531 (bvand ?x7514 (_ bv4 8))))
 (and (distinct (_ bv0 8) ?x7531) true))))
(assert
 (let ((?x13897 ((_ extract 127 120) sigaction_oldact_354_1216)))
 (let ((?x13907 (bvand ?x13897 (_ bv4 8))))
 (and (distinct (_ bv0 8) ?x13907) true))))
(assert
 (let ((?x28148 ((_ extract 127 120) sigaction_oldact_550_1216)))
 (let ((?x28165 (bvand ?x28148 (_ bv4 8))))
 (= (_ bv0 8) ?x28165))))
(assert
 (let ((?x51179 ((_ extract 127 120) sigaction_oldact_890_1216)))
 (let ((?x51184 (bvand ?x51179 (_ bv4 8))))
 (and (distinct (_ bv0 8) ?x51184) true))))
(assert
 (let ((?x95467 ((_ extract 127 120) sigaction_oldact_1672_1216)))
 (let ((?x95483 (bvand ?x95467 (_ bv4 8))))
 (= (_ bv0 8) ?x95483))))
(maximize strlen_72_64)
(maximize sigaction_oldact_259_1216)
(maximize sigaction_oldact_218_1216)
(minimize sigaction_oldact_184_1216)
(minimize sigaction_oldact_218_1216)
(minimize sigaction_oldact_354_1216)
(maximize sigaction_oldact_196_1216)
(minimize args_0_8)
(minimize sigaction_oldact_175_1216)
(maximize sigaction_oldact_175_1216)
(check-sat)
(get-objectives)
